p cnf 7230 17
-7161 -7162 0
-6107 -7147 7159 0
-4494 -7139 -7157 0
-7117 -7135 -7155 0
6107 -7160 0
4494 -7158 0
7117 -7156 0
-7159 7160 0
7157 7158 0
7155 7156 0
7147 -7160 0
7139 -7158 0
7135 -7156 0
-7141 7162 0
7153 7154 0
-7153 -7154 0
7141 -7162 0
